52
-1 null 0 0.0 0.0 0.0
1 1 0 565.0 575.0 0.0
2 1 0 25.0 185.0 0.0
3 1 0 345.0 750.0 0.0
4 1 0 945.0 685.0 0.0
5 1 0 845.0 655.0 0.0
6 1 0 880.0 660.0 0.0
7 1 0 25.0 230.0 0.0
8 1 0 525.0 1000.0 0.0
9 1 0 580.0 1175.0 0.0
10 1 0 650.0 1130.0 0.0
11 1 0 1605.0 620.0 0.0
12 1 0 1220.0 580.0 0.0
13 1 0 1465.0 200.0 0.0
14 1 0 1530.0 5.0 0.0
15 1 0 845.0 680.0 0.0
16 1 0 725.0 370.0 0.0
17 1 0 145.0 665.0 0.0
18 1 0 415.0 635.0 0.0
19 1 0 510.0 875.0 0.0
20 1 0 560.0 365.0 0.0
21 1 0 300.0 465.0 0.0
22 1 0 520.0 585.0 0.0
23 1 0 480.0 415.0 0.0
24 1 0 835.0 625.0 0.0
25 1 0 975.0 580.0 0.0
26 1 0 1215.0 245.0 0.0
27 1 0 1320.0 315.0 0.0
28 1 0 1250.0 400.0 0.0
29 1 0 660.0 180.0 0.0
30 1 0 410.0 250.0 0.0
31 1 0 420.0 555.0 0.0
32 1 0 575.0 665.0 0.0
33 1 0 1150.0 1160.0 0.0
34 1 0 700.0 580.0 0.0
35 1 0 685.0 595.0 0.0
36 1 0 685.0 610.0 0.0
37 1 0 770.0 610.0 0.0
38 1 0 795.0 645.0 0.0
39 1 0 720.0 635.0 0.0
40 1 0 760.0 650.0 0.0
41 1 0 475.0 960.0 0.0
42 1 0 95.0 260.0 0.0
43 1 0 875.0 920.0 0.0
44 1 0 700.0 500.0 0.0
45 1 0 555.0 815.0 0.0
46 1 0 830.0 485.0 0.0
47 1 0 1170.0 65.0 0.0
48 1 0 830.0 610.0 0.0
49 1 0 605.0 625.0 0.0
50 1 0 595.0 360.0 0.0
51 1 0 1340.0 725.0 0.0
52 1 0 1740.0 245.0 0.0
